c clasp version 2.1.1
c Reading from p18.cnf
c Solving...
s SATISFIABLE

c Models        : 1+    
c Time          : 0.849s (Solving: 0.08s 1st Model: 0.07s Unsat: 0.00s)
c CPU Time      : 0.840s
c Choices       : 6063
c Conflicts     : 158
c Restarts      : 0     

c Variables     : 223324 (Eliminated: 69916 Frozen:    0)
c Constraints   : 255655 (Binary: 64.7% Ternary: 33.9% Other:  1.3%)
c Lemmas        : 158    (Binary:  0.0% Ternary:  0.0% Other:100.0%)
c   Conflict    : 158    (Average Length: 31.4) 
c   Loop        : 0      (Average Length: 0.0) 
c   Other       : 0      (Average Length: 0.0)
c   Deleted     : 0     
